decision_x1=[0,4];
decision_x2=[0,4];
decision_x3=[0,4];
decision_x4=[0,4];
decision_x5=[0,4];
decision_x6=[0,4];
decision_x7=[0,4];
decision_x8=[0,4];
decision_x9=[0,4];
decision_x10=[0,4];
random_y1=[0,4];
random_y2=[0,4];
random_y3=[0,4];
random_y4=[0,4];
random_y5=[0,4];
random_y6=[0,4];
random_y7=[0,4];
random_y8=[0,4];
random_y9=[0,4];
random_y10=[0,4];
constraint_x2_x1=[
0,0,72|
0,1,36|
0,2,39|
0,3,27|
0,4,51|
1,0,58|
1,1,27|
1,2,68|
1,3,80|
1,4,51|
2,0,45|
2,1,69|
2,2,99|
2,3,73|
2,4,16|
3,0,26|
3,1,59|
3,2,8.2|
3,3,7.4|
3,4,19|
4,0,30|
4,1,83|
4,2,78|
4,3,70|
4,4,21|
];
constraint_x3_x1=[
0,0,9.2|
0,1,75|
0,2,58|
0,3,75|
0,4,38|
1,0,75|
1,1,78|
1,2,53|
1,3,96|
1,4,76|
2,0,48|
2,1,25|
2,2,43|
2,3,52|
2,4,63|
3,0,30|
3,1,84|
3,2,62|
3,3,62|
3,4,0.45|
4,0,76|
4,1,33|
4,2,72|
4,3,1e+02|
4,4,51|
];
constraint_x4_x1=[
0,0,45|
0,1,70|
0,2,61|
0,3,7|
0,4,52|
1,0,37|
1,1,94|
1,2,35|
1,3,50|
1,4,95|
2,0,17|
2,1,57|
2,2,3.3|
2,3,50|
2,4,96|
3,0,14|
3,1,57|
3,2,70|
3,3,85|
3,4,10|
4,0,0.065|
4,1,17|
4,2,46|
4,3,34|
4,4,80|
];
constraint_x4_x2=[
0,0,79|
0,1,78|
0,2,51|
0,3,42|
0,4,31|
1,0,1.9|
1,1,16|
1,2,78|
1,3,16|
1,4,80|
2,0,89|
2,1,79|
2,2,58|
2,3,67|
2,4,40|
3,0,73|
3,1,59|
3,2,11|
3,3,76|
3,4,55|
4,0,53|
4,1,19|
4,2,66|
4,3,58|
4,4,43|
];
constraint_x5_x1=[
0,0,87|
0,1,57|
0,2,35|
0,3,45|
0,4,14|
1,0,13|
1,1,95|
1,2,24|
1,3,12|
1,4,41|
2,0,34|
2,1,69|
2,2,39|
2,3,19|
2,4,23|
3,0,70|
3,1,40|
3,2,20|
3,3,89|
3,4,91|
4,0,83|
4,1,25|
4,2,78|
4,3,28|
4,4,65|
];
constraint_x5_x2=[
0,0,10|
0,1,46|
0,2,66|
0,3,82|
0,4,66|
1,0,14|
1,1,67|
1,2,42|
1,3,6.3|
1,4,50|
2,0,56|
2,1,76|
2,2,89|
2,3,79|
2,4,6.9|
3,0,84|
3,1,92|
3,2,39|
3,3,32|
3,4,35|
4,0,8.5|
4,1,66|
4,2,48|
4,3,73|
4,4,27|
];
constraint_x5_x4=[
0,0,48|
0,1,47|
0,2,64|
0,3,82|
0,4,85|
1,0,0.3|
1,1,63|
1,2,39|
1,3,37|
1,4,27|
2,0,0.65|
2,1,20|
2,2,21|
2,3,96|
2,4,51|
3,0,53|
3,1,14|
3,2,25|
3,3,97|
3,4,59|
4,0,14|
4,1,39|
4,2,60|
4,3,95|
4,4,5.5|
];
constraint_x6_x2=[
0,0,69|
0,1,14|
0,2,92|
0,3,40|
0,4,82|
1,0,20|
1,1,75|
1,2,32|
1,3,42|
1,4,41|
2,0,59|
2,1,80|
2,2,91|
2,3,36|
2,4,23|
3,0,43|
3,1,76|
3,2,61|
3,3,36|
3,4,37|
4,0,71|
4,1,21|
4,2,66|
4,3,65|
4,4,22|
];
constraint_x7_x1=[
0,0,70|
0,1,14|
0,2,86|
0,3,64|
0,4,60|
1,0,17|
1,1,65|
1,2,91|
1,3,51|
1,4,32|
2,0,64|
2,1,6.2|
2,2,30|
2,3,36|
2,4,90|
3,0,71|
3,1,75|
3,2,31|
3,3,12|
3,4,1.4|
4,0,28|
4,1,8.2|
4,2,18|
4,3,31|
4,4,83|
];
constraint_x7_x2=[
0,0,10|
0,1,80|
0,2,1e+02|
0,3,67|
0,4,26|
1,0,93|
1,1,59|
1,2,93|
1,3,27|
1,4,3.4|
2,0,51|
2,1,46|
2,2,53|
2,3,95|
2,4,22|
3,0,20|
3,1,96|
3,2,78|
3,3,8.5|
3,4,45|
4,0,69|
4,1,42|
4,2,74|
4,3,76|
4,4,75|
];
constraint_x8_x2=[
0,0,90|
0,1,84|
0,2,77|
0,3,70|
0,4,88|
1,0,61|
1,1,25|
1,2,19|
1,3,71|
1,4,69|
2,0,29|
2,1,77|
2,2,49|
2,3,51|
2,4,44|
3,0,52|
3,1,75|
3,2,56|
3,3,22|
3,4,73|
4,0,67|
4,1,77|
4,2,97|
4,3,65|
4,4,70|
];
constraint_x8_x3=[
0,0,40|
0,1,93|
0,2,27|
0,3,42|
0,4,13|
1,0,35|
1,1,29|
1,2,56|
1,3,58|
1,4,71|
2,0,47|
2,1,22|
2,2,38|
2,3,15|
2,4,26|
3,0,92|
3,1,63|
3,2,34|
3,3,46|
3,4,29|
4,0,47|
4,1,35|
4,2,97|
4,3,73|
4,4,13|
];
constraint_x8_x7=[
0,0,35|
0,1,99|
0,2,69|
0,3,46|
0,4,36|
1,0,38|
1,1,2.4|
1,2,97|
1,3,81|
1,4,93|
2,0,52|
2,1,72|
2,2,70|
2,3,44|
2,4,16|
3,0,17|
3,1,62|
3,2,7.9|
3,3,79|
3,4,55|
4,0,76|
4,1,15|
4,2,74|
4,3,47|
4,4,29|
];
constraint_x9_x1=[
0,0,67|
0,1,19|
0,2,3.6|
0,3,79|
0,4,12|
1,0,32|
1,1,7.8|
1,2,2.4|
1,3,24|
1,4,1e+02|
2,0,74|
2,1,94|
2,2,62|
2,3,72|
2,4,85|
3,0,94|
3,1,40|
3,2,0.073|
3,3,79|
3,4,23|
4,0,90|
4,1,20|
4,2,48|
4,3,55|
4,4,70|
];
constraint_x9_x2=[
0,0,96|
0,1,18|
0,2,28|
0,3,17|
0,4,9.4|
1,0,59|
1,1,33|
1,2,61|
1,3,24|
1,4,77|
2,0,39|
2,1,19|
2,2,35|
2,3,48|
2,4,83|
3,0,6.7|
3,1,60|
3,2,28|
3,3,67|
3,4,32|
4,0,60|
4,1,7.8|
4,2,18|
4,3,36|
4,4,44|
];
constraint_x9_x3=[
0,0,49|
0,1,61|
0,2,29|
0,3,43|
0,4,45|
1,0,24|
1,1,28|
1,2,77|
1,3,14|
1,4,73|
2,0,61|
2,1,79|
2,2,10|
2,3,33|
2,4,94|
3,0,5.2|
3,1,11|
3,2,7.2|
3,3,62|
3,4,86|
4,0,2.8|
4,1,64|
4,2,84|
4,3,15|
4,4,23|
];
constraint_x9_x4=[
0,0,15|
0,1,89|
0,2,41|
0,3,71|
0,4,3.5|
1,0,44|
1,1,9.9|
1,2,8.9|
1,3,1.6|
1,4,27|
2,0,21|
2,1,21|
2,2,75|
2,3,13|
2,4,12|
3,0,87|
3,1,70|
3,2,19|
3,3,15|
3,4,71|
4,0,30|
4,1,27|
4,2,8.7|
4,3,42|
4,4,10|
];
constraint_x9_x5=[
0,0,17|
0,1,54|
0,2,96|
0,3,76|
0,4,51|
1,0,15|
1,1,5.6|
1,2,24|
1,3,57|
1,4,49|
2,0,34|
2,1,89|
2,2,89|
2,3,53|
2,4,83|
3,0,36|
3,1,81|
3,2,43|
3,3,98|
3,4,78|
4,0,72|
4,1,91|
4,2,27|
4,3,27|
4,4,18|
];
constraint_x9_x7=[
0,0,58|
0,1,43|
0,2,57|
0,3,5.7|
0,4,79|
1,0,47|
1,1,33|
1,2,13|
1,3,80|
1,4,26|
2,0,73|
2,1,98|
2,2,64|
2,3,31|
2,4,75|
3,0,25|
3,1,58|
3,2,56|
3,3,44|
3,4,97|
4,0,23|
4,1,49|
4,2,45|
4,3,86|
4,4,5.4|
];
constraint_x10_x3=[
0,0,19|
0,1,29|
0,2,24|
0,3,99|
0,4,38|
1,0,81|
1,1,34|
1,2,48|
1,3,13|
1,4,21|
2,0,45|
2,1,45|
2,2,25|
2,3,61|
2,4,13|
3,0,43|
3,1,43|
3,2,42|
3,3,81|
3,4,7|
4,0,5|
4,1,61|
4,2,67|
4,3,86|
4,4,32|
];
constraint_x10_x5=[
0,0,66|
0,1,6.1|
0,2,66|
0,3,24|
0,4,83|
1,0,68|
1,1,76|
1,2,65|
1,3,26|
1,4,26|
2,0,59|
2,1,39|
2,2,76|
2,3,8.1|
2,4,99|
3,0,7.2|
3,1,33|
3,2,97|
3,3,37|
3,4,76|
4,0,2.4|
4,1,93|
4,2,38|
4,3,85|
4,4,7|
];
constraint_x10_x6=[
0,0,95|
0,1,4.5|
0,2,74|
0,3,0.87|
0,4,1.2|
1,0,3.5|
1,1,68|
1,2,82|
1,3,96|
1,4,52|
2,0,96|
2,1,92|
2,2,71|
2,3,16|
2,4,81|
3,0,36|
3,1,32|
3,2,11|
3,3,56|
3,4,87|
4,0,9.7|
4,1,51|
4,2,50|
4,3,81|
4,4,23|
];
constraint_x10_x7=[
0,0,82|
0,1,37|
0,2,34|
0,3,38|
0,4,1e+02|
1,0,96|
1,1,30|
1,2,53|
1,3,1.7|
1,4,20|
2,0,89|
2,1,56|
2,2,50|
2,3,64|
2,4,94|
3,0,32|
3,1,23|
3,2,66|
3,3,31|
3,4,13|
4,0,70|
4,1,35|
4,2,52|
4,3,8|
4,4,65|
];
constraint_x1_y1=[
0,0,48|
0,1,42|
0,2,16|
0,3,72|
0,4,80|
1,0,53|
1,1,20|
1,2,97|
1,3,73|
1,4,88|
2,0,83|
2,1,58|
2,2,80|
2,3,68|
2,4,96|
3,0,74|
3,1,8.7|
3,2,84|
3,3,50|
3,4,97|
4,0,27|
4,1,34|
4,2,3.1|
4,3,57|
4,4,48|
];
constraint_x2_y2=[
0,0,34|
0,1,59|
0,2,12|
0,3,89|
0,4,91|
1,0,6.4|
1,1,10|
1,2,88|
1,3,67|
1,4,96|
2,0,53|
2,1,67|
2,2,86|
2,3,8.4|
2,4,77|
3,0,96|
3,1,29|
3,2,7.8|
3,3,60|
3,4,1.1|
4,0,33|
4,1,26|
4,2,5.5|
4,3,57|
4,4,11|
];
constraint_x3_y3=[
0,0,18|
0,1,77|
0,2,38|
0,3,74|
0,4,16|
1,0,8.2|
1,1,23|
1,2,28|
1,3,18|
1,4,18|
2,0,19|
2,1,32|
2,2,38|
2,3,78|
2,4,99|
3,0,56|
3,1,28|
3,2,29|
3,3,98|
3,4,71|
4,0,94|
4,1,8.4|
4,2,42|
4,3,79|
4,4,53|
];
constraint_x4_y4=[
0,0,44|
0,1,68|
0,2,72|
0,3,9.5|
0,4,87|
1,0,27|
1,1,71|
1,2,48|
1,3,97|
1,4,90|
2,0,4|
2,1,59|
2,2,35|
2,3,52|
2,4,73|
3,0,78|
3,1,56|
3,2,0.96|
3,3,0.66|
3,4,33|
4,0,29|
4,1,40|
4,2,78|
4,3,39|
4,4,7|
];
constraint_x5_y5=[
0,0,99|
0,1,44|
0,2,77|
0,3,73|
0,4,90|
1,0,9.8|
1,1,2.5|
1,2,56|
1,3,47|
1,4,22|
2,0,56|
2,1,18|
2,2,35|
2,3,62|
2,4,9.5|
3,0,99|
3,1,50|
3,2,8|
3,3,1e+02|
3,4,8.3|
4,0,26|
4,1,32|
4,2,80|
4,3,87|
4,4,96|
];
constraint_x6_y6=[
0,0,57|
0,1,51|
0,2,0.38|
0,3,46|
0,4,30|
1,0,25|
1,1,69|
1,2,99|
1,3,74|
1,4,77|
2,0,25|
2,1,1.6|
2,2,69|
2,3,27|
2,4,82|
3,0,80|
3,1,61|
3,2,42|
3,3,55|
3,4,26|
4,0,2.8|
4,1,27|
4,2,80|
4,3,89|
4,4,31|
];
constraint_x7_y7=[
0,0,69|
0,1,1.1|
0,2,76|
0,3,86|
0,4,58|
1,0,25|
1,1,75|
1,2,47|
1,3,92|
1,4,99|
2,0,75|
2,1,71|
2,2,70|
2,3,16|
2,4,60|
3,0,1.9|
3,1,48|
3,2,1.3|
3,3,90|
3,4,23|
4,0,99|
4,1,40|
4,2,30|
4,3,12|
4,4,74|
];
constraint_x8_y8=[
0,0,11|
0,1,5.2|
0,2,92|
0,3,51|
0,4,45|
1,0,64|
1,1,29|
1,2,35|
1,3,93|
1,4,55|
2,0,58|
2,1,37|
2,2,33|
2,3,7.3|
2,4,83|
3,0,71|
3,1,61|
3,2,56|
3,3,31|
3,4,66|
4,0,74|
4,1,99|
4,2,59|
4,3,21|
4,4,22|
];
constraint_x9_y9=[
0,0,7.6|
0,1,36|
0,2,85|
0,3,34|
0,4,66|
1,0,57|
1,1,40|
1,2,0.97|
1,3,40|
1,4,63|
2,0,66|
2,1,14|
2,2,67|
2,3,76|
2,4,80|
3,0,4.9|
3,1,34|
3,2,61|
3,3,27|
3,4,16|
4,0,42|
4,1,87|
4,2,11|
4,3,69|
4,4,28|
];
constraint_x10_y10=[
0,0,34|
0,1,45|
0,2,7|
0,3,82|
0,4,33|
1,0,81|
1,1,21|
1,2,47|
1,3,85|
1,4,22|
2,0,84|
2,1,99|
2,2,20|
2,3,70|
2,4,48|
3,0,27|
3,1,25|
3,2,58|
3,3,0.75|
3,4,29|
4,0,60|
4,1,52|
4,2,1|
4,3,3.6|
4,4,48|
];
initial_distribution_y1=[0.044,0.24,0.34,0.15,0.23];
initial_distribution_y2=[0.23,0.24,0.23,0.16,0.15];
initial_distribution_y3=[0.22,0.099,0.29,0.041,0.35];
initial_distribution_y4=[0.11,0.35,0.11,0.23,0.2];
initial_distribution_y5=[0.34,0.22,0.21,0.19,0.032];
initial_distribution_y6=[0.35,0.21,0.077,0.33,0.025];
initial_distribution_y7=[0.15,0.051,0.23,0.26,0.3];
initial_distribution_y8=[0.16,0.022,0.2,0.3,0.32];
initial_distribution_y9=[0.015,0.14,0.32,0.09,0.43];
initial_distribution_y10=[0.026,0.048,0.26,0.38,0.28];
transition_y1=[
0.24,0.15,0.2,0.11,0.3|
0.23,0.16,0.24,0.061,0.3|
0.13,0.13,0.24,0.24,0.25|
0.2,0.12,0.23,0.38,0.072|
0.11,0.36,0.22,0.26,0.051|
];
transition_y2=[
0.18,0.21,0.27,0.21,0.12|
0.013,0.21,0.43,0.19,0.16|
0.23,0.13,0.046,0.25,0.34|
0.39,0.27,0.17,0.13,0.04|
0.38,0.093,0.053,0.23,0.25|
];
transition_y3=[
0.11,0.42,0.4,0.062,0.013|
0.36,0.33,0.047,0.22,0.039|
0.043,0.24,0.24,0.32,0.15|
0.27,0.075,0.18,0.22,0.26|
0.36,0.088,0.27,0.11,0.17|
];
transition_y4=[
0.34,0.16,0.47,0.017,0.019|
0.29,0.17,0.26,0.092,0.18|
0.044,0.13,0.094,0.39,0.34|
0.28,0.27,0.23,0.11,0.11|
0.14,0.17,0.23,0.23,0.23|
];
transition_y5=[
0.15,0.33,0.11,0.13,0.29|
0.25,0.011,0.14,0.26,0.35|
0.25,0.24,0.23,0.2,0.091|
0.34,0.057,0.19,0.15,0.26|
0.37,0.29,0.0071,0.018,0.31|
];
transition_y6=[
0.41,0.15,0.15,0.054,0.23|
0.12,0.14,0.2,0.24,0.3|
0.25,0.23,0.097,0.21,0.21|
0.25,0.19,0.24,0.19,0.14|
0.11,0.3,0.07,0.22,0.3|
];
transition_y7=[
0.027,0.045,0.28,0.51,0.14|
0.36,0.042,0.12,0.16,0.31|
0.31,0.12,0.17,0.15,0.25|
0.13,0.026,0.056,0.31,0.48|
0.06,0.16,0.3,0.36,0.12|
];
transition_y8=[
0.31,0.099,0.31,0.18,0.11|
0.23,0.19,0.21,0.088,0.29|
0.53,0.056,0.009,0.15,0.25|
0.016,0.19,0.19,0.36,0.23|
0.2,0.17,0.16,0.22,0.25|
];
transition_y9=[
0.12,0.29,0.28,0.092,0.22|
0.23,0.077,0.31,0.23,0.16|
0.11,0.35,0.3,0.15,0.092|
0.32,0.2,0.25,0.16,0.066|
0.23,0.21,0.22,0.28,0.053|
];
transition_y10=[
0.064,0.24,0.15,0.26,0.28|
0.037,0.32,0.085,0.29,0.27|
0.28,0.12,0.26,0.2,0.14|
0.027,0.0082,0.38,0.23,0.36|
0.045,0.25,0.34,0.048,0.32|
];
